c description: Random 3-CNF over 18 variables and 77 clauses
c generator: CNFgen (0.9.2)
c copyright: (C) 2012-2022 Massimo Lauria <massimo.lauria@uniroma1.it>
c url: https://massimolauria.net/cnfgen
c command line: cnfgen --output CNF_4.28/18_bit_77_395.cnf randkcnf 3 18 77
c
p cnf 18 77
9 12 -15 0
1 -4 12 0
7 14 -16 0
7 14 18 0
1 6 14 0
-4 -9 18 0
6 -7 -18 0
-4 -5 6 0
1 -2 17 0
-7 12 -13 0
-9 14 15 0
-4 11 -15 0
11 12 13 0
-8 -9 15 0
-1 -7 -14 0
7 10 11 0
8 -13 -17 0
8 -11 -13 0
-7 -13 -14 0
-6 -9 17 0
-2 -3 -6 0
9 10 11 0
-2 4 -16 0
-8 9 18 0
-6 8 -13 0
-7 -12 -13 0
-6 -8 -18 0
2 3 -13 0
-6 -12 17 0
8 9 -12 0
-9 10 -18 0
-1 8 16 0
-4 8 17 0
7 -10 13 0
6 -11 17 0
-6 13 -14 0
-2 4 -7 0
4 11 12 0
2 15 17 0
-8 -10 18 0
11 -17 -18 0
7 10 -16 0
-1 14 -16 0
9 10 -11 0
6 -12 -17 0
-6 12 18 0
1 2 -17 0
4 5 -7 0
6 13 14 0
7 -8 -14 0
11 -16 -18 0
8 -12 14 0
4 5 -8 0
2 7 12 0
6 12 18 0
-11 12 18 0
-1 7 8 0
-3 4 7 0
1 -3 15 0
-5 -12 -18 0
-2 -8 13 0
-12 15 -18 0
-1 15 -17 0
7 9 -11 0
1 2 3 0
7 15 -16 0
1 -4 -17 0
-10 13 -15 0
3 5 15 0
-7 -13 -17 0
-1 -8 9 0
8 -11 -18 0
-1 9 14 0
-7 -12 14 0
1 -13 16 0
-1 -8 17 0
7 -13 -18 0
